c WARNING: for repeatability, setting FPU to use double precision
d VARIABLES            73566        
d CONSTRAINTS          260404       
c ============================[ Problem Statistics ]=============================
c |                                                                             |
c |  Number of variables:         73566                                         |
c |  Number of clauses:          260404                                         |
c |  Parse time:                   0.04 s                                       |
c |                                                                             |
c ============================[ Search Statistics ]==============================
c | Conflicts |          ORIGINAL         |          LEARNT          | Progress |
c |           |    Vars  Clauses Literals |    Limit  Clauses Lit/Cl |          |
c ===============================================================================
c |       100 |   53486   208382   523867 |    76406      100     32 | 27.295 % |
c |       250 |   53486   208382   523867 |    84047      250     17 | 27.295 % |
c |       475 |   53486   208382   523867 |    92452      475     15 | 27.295 % |
c |       812 |   53486   208382   523867 |   101697      812     17 | 27.295 % |
c |      1318 |   53486   208382   523867 |   111867     1318     33 | 27.295 % |
c |      2077 |   53486   208382   523867 |   123053     2077     36 | 27.295 % |
c |      3216 |   53486   208382   523867 |   135359     3216     38 | 27.295 % |
c |      4924 |   53486   208382   523867 |   148895     4924     41 | 27.295 % |
c |      7486 |   53486   208382   523867 |   163784     7486     49 | 27.295 % |
c |     11330 |   53486   208382   523867 |   180163    11330     55 | 27.295 % |
c |     17096 |   53486   208382   523867 |   198179    17096     57 | 27.295 % |
c |     25745 |   53486   208382   523867 |   217997    25745     55 | 27.295 % |
c |     38719 |   53486   208382   523867 |   239797    38719     53 | 27.295 % |
c |     58180 |   53486   208382   523867 |   263776    58180     52 | 27.295 % |
c |     87372 |   53486   208382   523867 |   290154    87372     50 | 27.295 % |
c |    131161 |   53486   208382   523867 |   319169   131161     46 | 27.295 % |
c |    196845 |   53486   208382   523867 |   351086   196845     43 | 27.295 % |
c |    295371 |   53486   208382   523867 |   386195   295371     41 | 27.295 % |
c |    443160 |   52461   200359   503576 |   424815    15093     36 | 28.689 % |
c ===============================================================================
c restarts              : 1022
c conflicts             : 448050         (1238 /sec)
c decisions             : 634552         (0.00 % random) (1753 /sec)
c propagations          : 370578038      (1024040 /sec)
c conflict literals     : 18578845       (49.27 % deleted)
d RESTARTS             1022
d FAILURES             448050       
d NODES                634552       
d BACKTRACKS           634552       
d PROPAGATIONS         370578038    
d NOGOODSIZE           41.47 
d MEMORY               147.00 
d TIME                 361.879 

s UNSATISFIABLE
